p cnf 432 1425
1 2 3 4 5 0
-91 0
-1 92 0
-2 92 0
-1 -2 93 0
-3 94 0
-4 94 0
-3 -4 95 0
-5 96 0
-91 96 0
-5 -91 97 0
-94 98 0
-96 98 0
-94 -96 99 0
-95 100 0
-97 100 0
-95 -97 101 0
-99 102 0
-100 102 0
-99 -100 103 0
-92 104 0
-98 104 0
-92 -98 105 0
-93 106 0
-102 106 0
-93 -102 107 0
-105 108 0
-106 108 0
-105 -106 109 0
-108 0
31 32 33 34 35 0
-110 0
-31 111 0
-32 111 0
-31 -32 112 0
-33 113 0
-34 113 0
-33 -34 114 0
-35 115 0
-110 115 0
-35 -110 116 0
-113 117 0
-115 117 0
-113 -115 118 0
-114 119 0
-116 119 0
-114 -116 120 0
-118 121 0
-119 121 0
-118 -119 122 0
-111 123 0
-117 123 0
-111 -117 124 0
-112 125 0
-121 125 0
-112 -121 126 0
-124 127 0
-125 127 0
-124 -125 128 0
-127 0
61 62 63 64 65 0
-129 0
-61 130 0
-62 130 0
-61 -62 131 0
-63 132 0
-64 132 0
-63 -64 133 0
-65 134 0
-129 134 0
-65 -129 135 0
-132 136 0
-134 136 0
-132 -134 137 0
-133 138 0
-135 138 0
-133 -135 139 0
-137 140 0
-138 140 0
-137 -138 141 0
-130 142 0
-136 142 0
-130 -136 143 0
-131 144 0
-140 144 0
-131 -140 145 0
-143 146 0
-144 146 0
-143 -144 147 0
-146 0
6 7 8 9 10 0
-148 0
-6 149 0
-7 149 0
-6 -7 150 0
-8 151 0
-9 151 0
-8 -9 152 0
-10 153 0
-148 153 0
-10 -148 154 0
-151 155 0
-153 155 0
-151 -153 156 0
-152 157 0
-154 157 0
-152 -154 158 0
-156 159 0
-157 159 0
-156 -157 160 0
-149 161 0
-155 161 0
-149 -155 162 0
-150 163 0
-159 163 0
-150 -159 164 0
-162 165 0
-163 165 0
-162 -163 166 0
-165 0
36 37 38 39 40 0
-167 0
-36 168 0
-37 168 0
-36 -37 169 0
-38 170 0
-39 170 0
-38 -39 171 0
-40 172 0
-167 172 0
-40 -167 173 0
-170 174 0
-172 174 0
-170 -172 175 0
-171 176 0
-173 176 0
-171 -173 177 0
-175 178 0
-176 178 0
-175 -176 179 0
-168 180 0
-174 180 0
-168 -174 181 0
-169 182 0
-178 182 0
-169 -178 183 0
-181 184 0
-182 184 0
-181 -182 185 0
-184 0
66 67 68 69 70 0
-186 0
-66 187 0
-67 187 0
-66 -67 188 0
-68 189 0
-69 189 0
-68 -69 190 0
-70 191 0
-186 191 0
-70 -186 192 0
-189 193 0
-191 193 0
-189 -191 194 0
-190 195 0
-192 195 0
-190 -192 196 0
-194 197 0
-195 197 0
-194 -195 198 0
-187 199 0
-193 199 0
-187 -193 200 0
-188 201 0
-197 201 0
-188 -197 202 0
-200 203 0
-201 203 0
-200 -201 204 0
-203 0
11 12 13 14 15 0
-205 0
-11 206 0
-12 206 0
-11 -12 207 0
-13 208 0
-14 208 0
-13 -14 209 0
-15 210 0
-205 210 0
-15 -205 211 0
-208 212 0
-210 212 0
-208 -210 213 0
-209 214 0
-211 214 0
-209 -211 215 0
-213 216 0
-214 216 0
-213 -214 217 0
-206 218 0
-212 218 0
-206 -212 219 0
-207 220 0
-216 220 0
-207 -216 221 0
-219 222 0
-220 222 0
-219 -220 223 0
-222 0
41 42 43 44 45 0
-224 0
-41 225 0
-42 225 0
-41 -42 226 0
-43 227 0
-44 227 0
-43 -44 228 0
-45 229 0
-224 229 0
-45 -224 230 0
-227 231 0
-229 231 0
-227 -229 232 0
-228 233 0
-230 233 0
-228 -230 234 0
-232 235 0
-233 235 0
-232 -233 236 0
-225 237 0
-231 237 0
-225 -231 238 0
-226 239 0
-235 239 0
-226 -235 240 0
-238 241 0
-239 241 0
-238 -239 242 0
-241 0
71 72 73 74 75 0
-243 0
-71 244 0
-72 244 0
-71 -72 245 0
-73 246 0
-74 246 0
-73 -74 247 0
-75 248 0
-243 248 0
-75 -243 249 0
-246 250 0
-248 250 0
-246 -248 251 0
-247 252 0
-249 252 0
-247 -249 253 0
-251 254 0
-252 254 0
-251 -252 255 0
-244 256 0
-250 256 0
-244 -250 257 0
-245 258 0
-254 258 0
-245 -254 259 0
-257 260 0
-258 260 0
-257 -258 261 0
-260 0
16 17 18 19 20 0
-262 0
-16 263 0
-17 263 0
-16 -17 264 0
-18 265 0
-19 265 0
-18 -19 266 0
-20 267 0
-262 267 0
-20 -262 268 0
-265 269 0
-267 269 0
-265 -267 270 0
-266 271 0
-268 271 0
-266 -268 272 0
-270 273 0
-271 273 0
-270 -271 274 0
-263 275 0
-269 275 0
-263 -269 276 0
-264 277 0
-273 277 0
-264 -273 278 0
-276 279 0
-277 279 0
-276 -277 280 0
-279 0
46 47 48 49 50 0
-281 0
-46 282 0
-47 282 0
-46 -47 283 0
-48 284 0
-49 284 0
-48 -49 285 0
-50 286 0
-281 286 0
-50 -281 287 0
-284 288 0
-286 288 0
-284 -286 289 0
-285 290 0
-287 290 0
-285 -287 291 0
-289 292 0
-290 292 0
-289 -290 293 0
-282 294 0
-288 294 0
-282 -288 295 0
-283 296 0
-292 296 0
-283 -292 297 0
-295 298 0
-296 298 0
-295 -296 299 0
-298 0
76 77 78 79 80 0
-300 0
-76 301 0
-77 301 0
-76 -77 302 0
-78 303 0
-79 303 0
-78 -79 304 0
-80 305 0
-300 305 0
-80 -300 306 0
-303 307 0
-305 307 0
-303 -305 308 0
-304 309 0
-306 309 0
-304 -306 310 0
-308 311 0
-309 311 0
-308 -309 312 0
-301 313 0
-307 313 0
-301 -307 314 0
-302 315 0
-311 315 0
-302 -311 316 0
-314 317 0
-315 317 0
-314 -315 318 0
-317 0
21 22 23 24 25 0
-319 0
-21 320 0
-22 320 0
-21 -22 321 0
-23 322 0
-24 322 0
-23 -24 323 0
-25 324 0
-319 324 0
-25 -319 325 0
-322 326 0
-324 326 0
-322 -324 327 0
-323 328 0
-325 328 0
-323 -325 329 0
-327 330 0
-328 330 0
-327 -328 331 0
-320 332 0
-326 332 0
-320 -326 333 0
-321 334 0
-330 334 0
-321 -330 335 0
-333 336 0
-334 336 0
-333 -334 337 0
-336 0
51 52 53 54 55 0
-338 0
-51 339 0
-52 339 0
-51 -52 340 0
-53 341 0
-54 341 0
-53 -54 342 0
-55 343 0
-338 343 0
-55 -338 344 0
-341 345 0
-343 345 0
-341 -343 346 0
-342 347 0
-344 347 0
-342 -344 348 0
-346 349 0
-347 349 0
-346 -347 350 0
-339 351 0
-345 351 0
-339 -345 352 0
-340 353 0
-349 353 0
-340 -349 354 0
-352 355 0
-353 355 0
-352 -353 356 0
-355 0
81 82 83 84 85 0
-357 0
-81 358 0
-82 358 0
-81 -82 359 0
-83 360 0
-84 360 0
-83 -84 361 0
-85 362 0
-357 362 0
-85 -357 363 0
-360 364 0
-362 364 0
-360 -362 365 0
-361 366 0
-363 366 0
-361 -363 367 0
-365 368 0
-366 368 0
-365 -366 369 0
-358 370 0
-364 370 0
-358 -364 371 0
-359 372 0
-368 372 0
-359 -368 373 0
-371 374 0
-372 374 0
-371 -372 375 0
-374 0
26 27 28 29 30 0
-376 0
-26 377 0
-27 377 0
-26 -27 378 0
-28 379 0
-29 379 0
-28 -29 380 0
-30 381 0
-376 381 0
-30 -376 382 0
-379 383 0
-381 383 0
-379 -381 384 0
-380 385 0
-382 385 0
-380 -382 386 0
-384 387 0
-385 387 0
-384 -385 388 0
-377 389 0
-383 389 0
-377 -383 390 0
-378 391 0
-387 391 0
-378 -387 392 0
-390 393 0
-391 393 0
-390 -391 394 0
-393 0
56 57 58 59 60 0
-395 0
-56 396 0
-57 396 0
-56 -57 397 0
-58 398 0
-59 398 0
-58 -59 399 0
-60 400 0
-395 400 0
-60 -395 401 0
-398 402 0
-400 402 0
-398 -400 403 0
-399 404 0
-401 404 0
-399 -401 405 0
-403 406 0
-404 406 0
-403 -404 407 0
-396 408 0
-402 408 0
-396 -402 409 0
-397 410 0
-406 410 0
-397 -406 411 0
-409 412 0
-410 412 0
-409 -410 413 0
-412 0
86 87 88 89 90 0
-414 0
-86 415 0
-87 415 0
-86 -87 416 0
-88 417 0
-89 417 0
-88 -89 418 0
-90 419 0
-414 419 0
-90 -414 420 0
-417 421 0
-419 421 0
-417 -419 422 0
-418 423 0
-420 423 0
-418 -420 424 0
-422 425 0
-423 425 0
-422 -423 426 0
-415 427 0
-421 427 0
-415 -421 428 0
-416 429 0
-425 429 0
-416 -425 430 0
-428 431 0
-429 431 0
-428 -429 432 0
-431 0
-1 -31 7 0
-1 -32 7 0
-1 -33 7 0
-1 -34 7 0
-1 -35 7 0
-2 -31 7 0
-2 -32 8 0
-2 -33 8 0
-2 -34 8 0
-2 -35 8 0
-3 -31 7 0
-3 -32 8 0
-3 -33 9 0
-3 -34 9 0
-3 -35 9 0
-4 -31 7 0
-4 -32 8 0
-4 -33 9 0
-4 -34 10 0
-4 -35 10 0
-5 -31 7 0
-5 -32 8 0
-5 -33 9 0
-5 -34 10 0
-5 -35 6 0
-31 -1 -61 37 0
-31 -2 -61 37 0
-31 -3 -61 37 0
-31 -4 -61 37 0
-31 -5 -61 37 0
-31 -1 -62 37 0
-31 -2 -62 37 0
-31 -3 -62 37 0
-31 -4 -62 37 0
-31 -5 -62 37 0
-31 -1 -63 37 0
-31 -2 -63 37 0
-31 -3 -63 37 0
-31 -4 -63 37 0
-31 -5 -63 37 0
-31 -1 -64 37 0
-31 -2 -64 37 0
-31 -3 -64 37 0
-31 -4 -64 37 0
-31 -5 -64 37 0
-31 -1 -65 37 0
-31 -2 -65 37 0
-31 -3 -65 37 0
-31 -4 -65 37 0
-31 -5 -65 37 0
-32 -1 -61 37 0
-32 -2 -61 37 0
-32 -3 -61 37 0
-32 -4 -61 37 0
-32 -5 -61 37 0
-32 -1 -62 37 0
-32 -2 -62 38 0
-32 -3 -62 38 0
-32 -4 -62 38 0
-32 -5 -62 38 0
-32 -1 -63 37 0
-32 -2 -63 38 0
-32 -3 -63 38 0
-32 -4 -63 38 0
-32 -5 -63 38 0
-32 -1 -64 37 0
-32 -2 -64 38 0
-32 -3 -64 38 0
-32 -4 -64 38 0
-32 -5 -64 38 0
-32 -1 -65 37 0
-32 -2 -65 38 0
-32 -3 -65 38 0
-32 -4 -65 38 0
-32 -5 -65 38 0
-33 -1 -61 37 0
-33 -2 -61 37 0
-33 -3 -61 37 0
-33 -4 -61 37 0
-33 -5 -61 37 0
-33 -1 -62 37 0
-33 -2 -62 38 0
-33 -3 -62 38 0
-33 -4 -62 38 0
-33 -5 -62 38 0
-33 -1 -63 37 0
-33 -2 -63 38 0
-33 -3 -63 39 0
-33 -4 -63 39 0
-33 -5 -63 39 0
-33 -1 -64 37 0
-33 -2 -64 38 0
-33 -3 -64 39 0
-33 -4 -64 39 0
-33 -5 -64 39 0
-33 -1 -65 37 0
-33 -2 -65 38 0
-33 -3 -65 39 0
-33 -4 -65 39 0
-33 -5 -65 39 0
-34 -1 -61 37 0
-34 -2 -61 37 0
-34 -3 -61 37 0
-34 -4 -61 37 0
-34 -5 -61 37 0
-34 -1 -62 37 0
-34 -2 -62 38 0
-34 -3 -62 38 0
-34 -4 -62 38 0
-34 -5 -62 38 0
-34 -1 -63 37 0
-34 -2 -63 38 0
-34 -3 -63 39 0
-34 -4 -63 39 0
-34 -5 -63 39 0
-34 -1 -64 37 0
-34 -2 -64 38 0
-34 -3 -64 39 0
-34 -4 -64 40 0
-34 -5 -64 40 0
-34 -1 -65 37 0
-34 -2 -65 38 0
-34 -3 -65 39 0
-34 -4 -65 40 0
-34 -5 -65 40 0
-35 -1 -61 37 0
-35 -2 -61 37 0
-35 -3 -61 37 0
-35 -4 -61 37 0
-35 -5 -61 37 0
-35 -1 -62 37 0
-35 -2 -62 38 0
-35 -3 -62 38 0
-35 -4 -62 38 0
-35 -5 -62 38 0
-35 -1 -63 37 0
-35 -2 -63 38 0
-35 -3 -63 39 0
-35 -4 -63 39 0
-35 -5 -63 39 0
-35 -1 -64 37 0
-35 -2 -64 38 0
-35 -3 -64 39 0
-35 -4 -64 40 0
-35 -5 -64 40 0
-35 -1 -65 37 0
-35 -2 -65 38 0
-35 -3 -65 39 0
-35 -4 -65 40 0
-35 -5 -65 36 0
-61 -31 67 0
-61 -32 67 0
-61 -33 67 0
-61 -34 67 0
-61 -35 67 0
-62 -31 67 0
-62 -32 68 0
-62 -33 68 0
-62 -34 68 0
-62 -35 68 0
-63 -31 67 0
-63 -32 68 0
-63 -33 69 0
-63 -34 69 0
-63 -35 69 0
-64 -31 67 0
-64 -32 68 0
-64 -33 69 0
-64 -34 70 0
-64 -35 70 0
-65 -31 67 0
-65 -32 68 0
-65 -33 69 0
-65 -34 70 0
-65 -35 66 0
-6 -36 12 0
-6 -37 12 0
-6 -38 12 0
-6 -39 12 0
-6 -40 12 0
-7 -36 12 0
-7 -37 13 0
-7 -38 13 0
-7 -39 13 0
-7 -40 13 0
-8 -36 12 0
-8 -37 13 0
-8 -38 14 0
-8 -39 14 0
-8 -40 14 0
-9 -36 12 0
-9 -37 13 0
-9 -38 14 0
-9 -39 15 0
-9 -40 15 0
-10 -36 12 0
-10 -37 13 0
-10 -38 14 0
-10 -39 15 0
-10 -40 11 0
-36 -6 -66 42 0
-36 -7 -66 42 0
-36 -8 -66 42 0
-36 -9 -66 42 0
-36 -10 -66 42 0
-36 -6 -67 42 0
-36 -7 -67 42 0
-36 -8 -67 42 0
-36 -9 -67 42 0
-36 -10 -67 42 0
-36 -6 -68 42 0
-36 -7 -68 42 0
-36 -8 -68 42 0
-36 -9 -68 42 0
-36 -10 -68 42 0
-36 -6 -69 42 0
-36 -7 -69 42 0
-36 -8 -69 42 0
-36 -9 -69 42 0
-36 -10 -69 42 0
-36 -6 -70 42 0
-36 -7 -70 42 0
-36 -8 -70 42 0
-36 -9 -70 42 0
-36 -10 -70 42 0
-37 -6 -66 42 0
-37 -7 -66 42 0
-37 -8 -66 42 0
-37 -9 -66 42 0
-37 -10 -66 42 0
-37 -6 -67 42 0
-37 -7 -67 43 0
-37 -8 -67 43 0
-37 -9 -67 43 0
-37 -10 -67 43 0
-37 -6 -68 42 0
-37 -7 -68 43 0
-37 -8 -68 43 0
-37 -9 -68 43 0
-37 -10 -68 43 0
-37 -6 -69 42 0
-37 -7 -69 43 0
-37 -8 -69 43 0
-37 -9 -69 43 0
-37 -10 -69 43 0
-37 -6 -70 42 0
-37 -7 -70 43 0
-37 -8 -70 43 0
-37 -9 -70 43 0
-37 -10 -70 43 0
-38 -6 -66 42 0
-38 -7 -66 42 0
-38 -8 -66 42 0
-38 -9 -66 42 0
-38 -10 -66 42 0
-38 -6 -67 42 0
-38 -7 -67 43 0
-38 -8 -67 43 0
-38 -9 -67 43 0
-38 -10 -67 43 0
-38 -6 -68 42 0
-38 -7 -68 43 0
-38 -8 -68 44 0
-38 -9 -68 44 0
-38 -10 -68 44 0
-38 -6 -69 42 0
-38 -7 -69 43 0
-38 -8 -69 44 0
-38 -9 -69 44 0
-38 -10 -69 44 0
-38 -6 -70 42 0
-38 -7 -70 43 0
-38 -8 -70 44 0
-38 -9 -70 44 0
-38 -10 -70 44 0
-39 -6 -66 42 0
-39 -7 -66 42 0
-39 -8 -66 42 0
-39 -9 -66 42 0
-39 -10 -66 42 0
-39 -6 -67 42 0
-39 -7 -67 43 0
-39 -8 -67 43 0
-39 -9 -67 43 0
-39 -10 -67 43 0
-39 -6 -68 42 0
-39 -7 -68 43 0
-39 -8 -68 44 0
-39 -9 -68 44 0
-39 -10 -68 44 0
-39 -6 -69 42 0
-39 -7 -69 43 0
-39 -8 -69 44 0
-39 -9 -69 45 0
-39 -10 -69 45 0
-39 -6 -70 42 0
-39 -7 -70 43 0
-39 -8 -70 44 0
-39 -9 -70 45 0
-39 -10 -70 45 0
-40 -6 -66 42 0
-40 -7 -66 42 0
-40 -8 -66 42 0
-40 -9 -66 42 0
-40 -10 -66 42 0
-40 -6 -67 42 0
-40 -7 -67 43 0
-40 -8 -67 43 0
-40 -9 -67 43 0
-40 -10 -67 43 0
-40 -6 -68 42 0
-40 -7 -68 43 0
-40 -8 -68 44 0
-40 -9 -68 44 0
-40 -10 -68 44 0
-40 -6 -69 42 0
-40 -7 -69 43 0
-40 -8 -69 44 0
-40 -9 -69 45 0
-40 -10 -69 45 0
-40 -6 -70 42 0
-40 -7 -70 43 0
-40 -8 -70 44 0
-40 -9 -70 45 0
-40 -10 -70 41 0
-66 -36 72 0
-66 -37 72 0
-66 -38 72 0
-66 -39 72 0
-66 -40 72 0
-67 -36 72 0
-67 -37 73 0
-67 -38 73 0
-67 -39 73 0
-67 -40 73 0
-68 -36 72 0
-68 -37 73 0
-68 -38 74 0
-68 -39 74 0
-68 -40 74 0
-69 -36 72 0
-69 -37 73 0
-69 -38 74 0
-69 -39 75 0
-69 -40 75 0
-70 -36 72 0
-70 -37 73 0
-70 -38 74 0
-70 -39 75 0
-70 -40 71 0
-11 -41 17 0
-11 -42 17 0
-11 -43 17 0
-11 -44 17 0
-11 -45 17 0
-12 -41 17 0
-12 -42 18 0
-12 -43 18 0
-12 -44 18 0
-12 -45 18 0
-13 -41 17 0
-13 -42 18 0
-13 -43 19 0
-13 -44 19 0
-13 -45 19 0
-14 -41 17 0
-14 -42 18 0
-14 -43 19 0
-14 -44 20 0
-14 -45 20 0
-15 -41 17 0
-15 -42 18 0
-15 -43 19 0
-15 -44 20 0
-15 -45 16 0
-41 -11 -71 47 0
-41 -12 -71 47 0
-41 -13 -71 47 0
-41 -14 -71 47 0
-41 -15 -71 47 0
-41 -11 -72 47 0
-41 -12 -72 47 0
-41 -13 -72 47 0
-41 -14 -72 47 0
-41 -15 -72 47 0
-41 -11 -73 47 0
-41 -12 -73 47 0
-41 -13 -73 47 0
-41 -14 -73 47 0
-41 -15 -73 47 0
-41 -11 -74 47 0
-41 -12 -74 47 0
-41 -13 -74 47 0
-41 -14 -74 47 0
-41 -15 -74 47 0
-41 -11 -75 47 0
-41 -12 -75 47 0
-41 -13 -75 47 0
-41 -14 -75 47 0
-41 -15 -75 47 0
-42 -11 -71 47 0
-42 -12 -71 47 0
-42 -13 -71 47 0
-42 -14 -71 47 0
-42 -15 -71 47 0
-42 -11 -72 47 0
-42 -12 -72 48 0
-42 -13 -72 48 0
-42 -14 -72 48 0
-42 -15 -72 48 0
-42 -11 -73 47 0
-42 -12 -73 48 0
-42 -13 -73 48 0
-42 -14 -73 48 0
-42 -15 -73 48 0
-42 -11 -74 47 0
-42 -12 -74 48 0
-42 -13 -74 48 0
-42 -14 -74 48 0
-42 -15 -74 48 0
-42 -11 -75 47 0
-42 -12 -75 48 0
-42 -13 -75 48 0
-42 -14 -75 48 0
-42 -15 -75 48 0
-43 -11 -71 47 0
-43 -12 -71 47 0
-43 -13 -71 47 0
-43 -14 -71 47 0
-43 -15 -71 47 0
-43 -11 -72 47 0
-43 -12 -72 48 0
-43 -13 -72 48 0
-43 -14 -72 48 0
-43 -15 -72 48 0
-43 -11 -73 47 0
-43 -12 -73 48 0
-43 -13 -73 49 0
-43 -14 -73 49 0
-43 -15 -73 49 0
-43 -11 -74 47 0
-43 -12 -74 48 0
-43 -13 -74 49 0
-43 -14 -74 49 0
-43 -15 -74 49 0
-43 -11 -75 47 0
-43 -12 -75 48 0
-43 -13 -75 49 0
-43 -14 -75 49 0
-43 -15 -75 49 0
-44 -11 -71 47 0
-44 -12 -71 47 0
-44 -13 -71 47 0
-44 -14 -71 47 0
-44 -15 -71 47 0
-44 -11 -72 47 0
-44 -12 -72 48 0
-44 -13 -72 48 0
-44 -14 -72 48 0
-44 -15 -72 48 0
-44 -11 -73 47 0
-44 -12 -73 48 0
-44 -13 -73 49 0
-44 -14 -73 49 0
-44 -15 -73 49 0
-44 -11 -74 47 0
-44 -12 -74 48 0
-44 -13 -74 49 0
-44 -14 -74 50 0
-44 -15 -74 50 0
-44 -11 -75 47 0
-44 -12 -75 48 0
-44 -13 -75 49 0
-44 -14 -75 50 0
-44 -15 -75 50 0
-45 -11 -71 47 0
-45 -12 -71 47 0
-45 -13 -71 47 0
-45 -14 -71 47 0
-45 -15 -71 47 0
-45 -11 -72 47 0
-45 -12 -72 48 0
-45 -13 -72 48 0
-45 -14 -72 48 0
-45 -15 -72 48 0
-45 -11 -73 47 0
-45 -12 -73 48 0
-45 -13 -73 49 0
-45 -14 -73 49 0
-45 -15 -73 49 0
-45 -11 -74 47 0
-45 -12 -74 48 0
-45 -13 -74 49 0
-45 -14 -74 50 0
-45 -15 -74 50 0
-45 -11 -75 47 0
-45 -12 -75 48 0
-45 -13 -75 49 0
-45 -14 -75 50 0
-45 -15 -75 46 0
-71 -41 77 0
-71 -42 77 0
-71 -43 77 0
-71 -44 77 0
-71 -45 77 0
-72 -41 77 0
-72 -42 78 0
-72 -43 78 0
-72 -44 78 0
-72 -45 78 0
-73 -41 77 0
-73 -42 78 0
-73 -43 79 0
-73 -44 79 0
-73 -45 79 0
-74 -41 77 0
-74 -42 78 0
-74 -43 79 0
-74 -44 80 0
-74 -45 80 0
-75 -41 77 0
-75 -42 78 0
-75 -43 79 0
-75 -44 80 0
-75 -45 76 0
-16 -46 22 0
-16 -47 22 0
-16 -48 22 0
-16 -49 22 0
-16 -50 22 0
-17 -46 22 0
-17 -47 23 0
-17 -48 23 0
-17 -49 23 0
-17 -50 23 0
-18 -46 22 0
-18 -47 23 0
-18 -48 24 0
-18 -49 24 0
-18 -50 24 0
-19 -46 22 0
-19 -47 23 0
-19 -48 24 0
-19 -49 25 0
-19 -50 25 0
-20 -46 22 0
-20 -47 23 0
-20 -48 24 0
-20 -49 25 0
-20 -50 21 0
-46 -16 -76 52 0
-46 -17 -76 52 0
-46 -18 -76 52 0
-46 -19 -76 52 0
-46 -20 -76 52 0
-46 -16 -77 52 0
-46 -17 -77 52 0
-46 -18 -77 52 0
-46 -19 -77 52 0
-46 -20 -77 52 0
-46 -16 -78 52 0
-46 -17 -78 52 0
-46 -18 -78 52 0
-46 -19 -78 52 0
-46 -20 -78 52 0
-46 -16 -79 52 0
-46 -17 -79 52 0
-46 -18 -79 52 0
-46 -19 -79 52 0
-46 -20 -79 52 0
-46 -16 -80 52 0
-46 -17 -80 52 0
-46 -18 -80 52 0
-46 -19 -80 52 0
-46 -20 -80 52 0
-47 -16 -76 52 0
-47 -17 -76 52 0
-47 -18 -76 52 0
-47 -19 -76 52 0
-47 -20 -76 52 0
-47 -16 -77 52 0
-47 -17 -77 53 0
-47 -18 -77 53 0
-47 -19 -77 53 0
-47 -20 -77 53 0
-47 -16 -78 52 0
-47 -17 -78 53 0
-47 -18 -78 53 0
-47 -19 -78 53 0
-47 -20 -78 53 0
-47 -16 -79 52 0
-47 -17 -79 53 0
-47 -18 -79 53 0
-47 -19 -79 53 0
-47 -20 -79 53 0
-47 -16 -80 52 0
-47 -17 -80 53 0
-47 -18 -80 53 0
-47 -19 -80 53 0
-47 -20 -80 53 0
-48 -16 -76 52 0
-48 -17 -76 52 0
-48 -18 -76 52 0
-48 -19 -76 52 0
-48 -20 -76 52 0
-48 -16 -77 52 0
-48 -17 -77 53 0
-48 -18 -77 53 0
-48 -19 -77 53 0
-48 -20 -77 53 0
-48 -16 -78 52 0
-48 -17 -78 53 0
-48 -18 -78 54 0
-48 -19 -78 54 0
-48 -20 -78 54 0
-48 -16 -79 52 0
-48 -17 -79 53 0
-48 -18 -79 54 0
-48 -19 -79 54 0
-48 -20 -79 54 0
-48 -16 -80 52 0
-48 -17 -80 53 0
-48 -18 -80 54 0
-48 -19 -80 54 0
-48 -20 -80 54 0
-49 -16 -76 52 0
-49 -17 -76 52 0
-49 -18 -76 52 0
-49 -19 -76 52 0
-49 -20 -76 52 0
-49 -16 -77 52 0
-49 -17 -77 53 0
-49 -18 -77 53 0
-49 -19 -77 53 0
-49 -20 -77 53 0
-49 -16 -78 52 0
-49 -17 -78 53 0
-49 -18 -78 54 0
-49 -19 -78 54 0
-49 -20 -78 54 0
-49 -16 -79 52 0
-49 -17 -79 53 0
-49 -18 -79 54 0
-49 -19 -79 55 0
-49 -20 -79 55 0
-49 -16 -80 52 0
-49 -17 -80 53 0
-49 -18 -80 54 0
-49 -19 -80 55 0
-49 -20 -80 55 0
-50 -16 -76 52 0
-50 -17 -76 52 0
-50 -18 -76 52 0
-50 -19 -76 52 0
-50 -20 -76 52 0
-50 -16 -77 52 0
-50 -17 -77 53 0
-50 -18 -77 53 0
-50 -19 -77 53 0
-50 -20 -77 53 0
-50 -16 -78 52 0
-50 -17 -78 53 0
-50 -18 -78 54 0
-50 -19 -78 54 0
-50 -20 -78 54 0
-50 -16 -79 52 0
-50 -17 -79 53 0
-50 -18 -79 54 0
-50 -19 -79 55 0
-50 -20 -79 55 0
-50 -16 -80 52 0
-50 -17 -80 53 0
-50 -18 -80 54 0
-50 -19 -80 55 0
-50 -20 -80 51 0
-76 -46 82 0
-76 -47 82 0
-76 -48 82 0
-76 -49 82 0
-76 -50 82 0
-77 -46 82 0
-77 -47 83 0
-77 -48 83 0
-77 -49 83 0
-77 -50 83 0
-78 -46 82 0
-78 -47 83 0
-78 -48 84 0
-78 -49 84 0
-78 -50 84 0
-79 -46 82 0
-79 -47 83 0
-79 -48 84 0
-79 -49 85 0
-79 -50 85 0
-80 -46 82 0
-80 -47 83 0
-80 -48 84 0
-80 -49 85 0
-80 -50 81 0
-21 -51 27 0
-21 -52 27 0
-21 -53 27 0
-21 -54 27 0
-21 -55 27 0
-22 -51 27 0
-22 -52 28 0
-22 -53 28 0
-22 -54 28 0
-22 -55 28 0
-23 -51 27 0
-23 -52 28 0
-23 -53 29 0
-23 -54 29 0
-23 -55 29 0
-24 -51 27 0
-24 -52 28 0
-24 -53 29 0
-24 -54 30 0
-24 -55 30 0
-25 -51 27 0
-25 -52 28 0
-25 -53 29 0
-25 -54 30 0
-25 -55 26 0
-51 -21 -81 57 0
-51 -22 -81 57 0
-51 -23 -81 57 0
-51 -24 -81 57 0
-51 -25 -81 57 0
-51 -21 -82 57 0
-51 -22 -82 57 0
-51 -23 -82 57 0
-51 -24 -82 57 0
-51 -25 -82 57 0
-51 -21 -83 57 0
-51 -22 -83 57 0
-51 -23 -83 57 0
-51 -24 -83 57 0
-51 -25 -83 57 0
-51 -21 -84 57 0
-51 -22 -84 57 0
-51 -23 -84 57 0
-51 -24 -84 57 0
-51 -25 -84 57 0
-51 -21 -85 57 0
-51 -22 -85 57 0
-51 -23 -85 57 0
-51 -24 -85 57 0
-51 -25 -85 57 0
-52 -21 -81 57 0
-52 -22 -81 57 0
-52 -23 -81 57 0
-52 -24 -81 57 0
-52 -25 -81 57 0
-52 -21 -82 57 0
-52 -22 -82 58 0
-52 -23 -82 58 0
-52 -24 -82 58 0
-52 -25 -82 58 0
-52 -21 -83 57 0
-52 -22 -83 58 0
-52 -23 -83 58 0
-52 -24 -83 58 0
-52 -25 -83 58 0
-52 -21 -84 57 0
-52 -22 -84 58 0
-52 -23 -84 58 0
-52 -24 -84 58 0
-52 -25 -84 58 0
-52 -21 -85 57 0
-52 -22 -85 58 0
-52 -23 -85 58 0
-52 -24 -85 58 0
-52 -25 -85 58 0
-53 -21 -81 57 0
-53 -22 -81 57 0
-53 -23 -81 57 0
-53 -24 -81 57 0
-53 -25 -81 57 0
-53 -21 -82 57 0
-53 -22 -82 58 0
-53 -23 -82 58 0
-53 -24 -82 58 0
-53 -25 -82 58 0
-53 -21 -83 57 0
-53 -22 -83 58 0
-53 -23 -83 59 0
-53 -24 -83 59 0
-53 -25 -83 59 0
-53 -21 -84 57 0
-53 -22 -84 58 0
-53 -23 -84 59 0
-53 -24 -84 59 0
-53 -25 -84 59 0
-53 -21 -85 57 0
-53 -22 -85 58 0
-53 -23 -85 59 0
-53 -24 -85 59 0
-53 -25 -85 59 0
-54 -21 -81 57 0
-54 -22 -81 57 0
-54 -23 -81 57 0
-54 -24 -81 57 0
-54 -25 -81 57 0
-54 -21 -82 57 0
-54 -22 -82 58 0
-54 -23 -82 58 0
-54 -24 -82 58 0
-54 -25 -82 58 0
-54 -21 -83 57 0
-54 -22 -83 58 0
-54 -23 -83 59 0
-54 -24 -83 59 0
-54 -25 -83 59 0
-54 -21 -84 57 0
-54 -22 -84 58 0
-54 -23 -84 59 0
-54 -24 -84 60 0
-54 -25 -84 60 0
-54 -21 -85 57 0
-54 -22 -85 58 0
-54 -23 -85 59 0
-54 -24 -85 60 0
-54 -25 -85 60 0
-55 -21 -81 57 0
-55 -22 -81 57 0
-55 -23 -81 57 0
-55 -24 -81 57 0
-55 -25 -81 57 0
-55 -21 -82 57 0
-55 -22 -82 58 0
-55 -23 -82 58 0
-55 -24 -82 58 0
-55 -25 -82 58 0
-55 -21 -83 57 0
-55 -22 -83 58 0
-55 -23 -83 59 0
-55 -24 -83 59 0
-55 -25 -83 59 0
-55 -21 -84 57 0
-55 -22 -84 58 0
-55 -23 -84 59 0
-55 -24 -84 60 0
-55 -25 -84 60 0
-55 -21 -85 57 0
-55 -22 -85 58 0
-55 -23 -85 59 0
-55 -24 -85 60 0
-55 -25 -85 56 0
-81 -51 87 0
-81 -52 87 0
-81 -53 87 0
-81 -54 87 0
-81 -55 87 0
-82 -51 87 0
-82 -52 88 0
-82 -53 88 0
-82 -54 88 0
-82 -55 88 0
-83 -51 87 0
-83 -52 88 0
-83 -53 89 0
-83 -54 89 0
-83 -55 89 0
-84 -51 87 0
-84 -52 88 0
-84 -53 89 0
-84 -54 90 0
-84 -55 90 0
-85 -51 87 0
-85 -52 88 0
-85 -53 89 0
-85 -54 90 0
-85 -55 86 0
-26 -56 -86 0
-27 -57 -87 0
-28 -58 -88 0
-29 -59 -89 0
-30 -60 -90 0
-1 -31 -61 0
-2 -32 -62 0
-3 -33 -63 0
-4 -34 -64 0
-5 -35 -65 0
